4410 3230 100 98 97 96 95 94 93 92 90 89 88 87 86 84 82 81 80 77 76 75 74 73 71 70 69 67 66 65 64 63 62 60 59 58 55 54 53 52 51 49 48 47 46 44 43 42 41 40 39 38 37 36 35 34 31 30 29 28 27 26 25 24 21 20 18 17 15 9 7 5 4 3 2 